letting initialStacks = [38, 35, 39, 7, 14, 1, 8, 11, 44, 51, 48, 21, 33, 31, 23, 41, 29, 6, 26, 50, 5, 37, 27, 40, 45, 10, 17, 32, 24, 15, 47, 12, 22, 18, 13, 30, 16, 19, 49, 34, 2, 42, 43, 20, 25, 3, 36, 9, 46, 28, 4]
